p tw 20 53
0 1
0 2
0 4
0 17
0 15
1 8
1 10
1 18
1 5
2 3
2 11
2 13
2 6
2 16
2 19
2 8
2 5
3 12
3 6
3 14
3 11
3 15
4 5
4 6
4 13
4 14
4 16
5 14
5 12
5 16
5 19
6 11
6 7
6 9
6 16
6 19
6 10
7 8
7 13
7 11
7 14
8 10
8 14
9 10
9 13
12 13
13 18
13 17
13 15
14 15
14 18
15 19
16 17
